(set-logic ALL)
(declare-fun var0 () String)
(assert (str.in_re var0 (re.++ (re.union (re.union (str.to_re "00") (str.to_re "111")) (re.union (str.to_re "222") (str.to_re "3"))) (re.++ (re.+ (re.+ (str.to_re "4"))) (re.union (re.union (str.to_re "5") (str.to_re "666")) (re.union (str.to_re "7") (str.to_re "88")))))))
(check-sat)